3 48 1 10
19 16 11 16 18 10 6 6 17 3 6 8 11 10 7 7 6 19 13 7 6 5 14 6 20 2 18 15 3 7 1 13 11 10 18 14 15 12 18 16 14 18 8 2 7 17 15 20 
6.17 3.14 6.59 0.54 1.57 0.57 2.47 3.88 0.2 2.22 1.67 5.32 3.42 5 6.4 6.88 7.47 0.12 6.41 0.37 5.06 6.9 4.53 6.6 1.42 7.09 5.78 3.9 2.46 0.21 5.25 1.5 4.34 7.06 3.91 5.16 5.72 0.88 1.12 0.72 3.86 2.45 0.86 1.36 3.25 5.1 4.08 5.35 
4 4 4 4 4 4 4 4 4 4 4 4 4 4 4 4 4 4 4 4 4 4 4 4 4 4 4 4 4 4 4 4 4 4 4 4 4 4 4 4 4 4 4 4 4 4 4 4 
6.53 5.75 2.02 2.98 5.23 1.66 6.81 4.05 1.65 0.43 0.59 7.01 5.48 1.03 1.24 5.13 1.09 2.02 2.26 0.89 5.01 1.94 4.03 7.46 2.19 4.07 0.35 2.87 5.98 6.46 2.52 5.84 1.7 3.89 4.52 0.06 3.6 7.58 0.69 3.72 1.69 5.5 7.36 7.09 6.34 5.78 1.09 7.85 
1 1 1 1 1 1 1 1 1 1 1 1 1 1 1 1 1 1 1 1 1 1 1 1 1 1 1 1 1 1 1 1 1 1 1 1 1 1 1 1 1 1 1 1 1 1 1 1 
1 1 1 1 1 1 1 1 1 1 1 1 1 1 1 1 1 1 1 1 1 1 1 1 1 1 1 1 1 1 1 1 1 1 1 1 1 1 1 1 1 1 1 1 1 1 1 1 
1 1 1 1 1 1 1 1 1 1 1 1 1 1 1 1 1 1 1 1 1 1 1 1 1 1 1 1 1 1 1 1 1 1 1 1 1 1 1 1 1 1 1 1 1 1 1 1 
0.01 0.01 0.01 0.01 0.01 0.01 0.01 0.01 0.01 0.01 0.01 0.01 0.01 0.01 0.01 0.01 0.01 0.01 0.01 0.01 0.01 0.01 0.01 0.01 0.01 0.01 0.01 0.01 0.01 0.01 0.01 0.01 0.01 0.01 0.01 0.01 0.01 0.01 0.01 0.01 0.01 0.01 0.01 0.01 0.01 0.01 0.01 0.01 
0.02 0.02 0.02 0.02 0.02 0.02 0.02 0.02 0.02 0.02 0.02 0.02 0.02 0.02 0.02 0.02 0.02 0.02 0.02 0.02 0.02 0.02 0.02 0.02 0.02 0.02 0.02 0.02 0.02 0.02 0.02 0.02 0.02 0.02 0.02 0.02 0.02 0.02 0.02 0.02 0.02 0.02 0.02 0.02 0.02 0.02 0.02 0.02 
1 1 1 1 1 1 1 1 1 1 1 1 1 1 1 1 1 1 1 1 1 1 1 1 1 1 1 1 1 1 1 1 1 1 1 1 1 1 1 1 1 1 1 1 1 1 1 1 
